; Source: IsaPlanner test suite
(declare-datatypes (a)
  ((list (nil) (cons (head a) (tail (list a))))))
(declare-datatypes () ((Nat (Z) (S (p Nat)))))
(define-funs-rec
  ((par (a) (take ((x Nat) (y (list a))) (list a))))
  ((match x
     (case Z (as nil (list a)))
     (case (S z)
       (match y
         (case nil y)
         (case (cons x2 x3) (cons x2 (as (take z x3) (list a)))))))))
(define-funs-rec
  ((minus ((x Nat) (y Nat)) Nat))
  ((match x
     (case Z x)
     (case (S z)
       (match y
         (case Z x)
         (case (S x2) (minus z x2)))))))
(define-funs-rec
  ((par (a) (len ((x (list a))) Nat)))
  ((match x
     (case nil Z)
     (case (cons y xs) (S (as (len xs) Nat))))))
(define-funs-rec
  ((par (a) (drop ((x Nat) (y (list a))) (list a))))
  ((match x
     (case Z y)
     (case (S z)
       (match y
         (case nil y)
         (case (cons x2 x3) (as (drop z x3) (list a))))))))
(define-funs-rec
  ((par (a) (append ((x (list a)) (y (list a))) (list a))))
  ((match x
     (case nil y)
     (case (cons z xs) (cons z (as (append xs y) (list a)))))))
(define-funs-rec
  ((par (a) (rev ((x (list a))) (list a))))
  ((match x
     (case nil x)
     (case (cons y xs)
       (append (as (rev xs) (list a)) (cons y (as nil (list a))))))))
(assert-not
  (par (a)
    (forall ((i Nat) (xs (list a)))
      (= (rev (drop i xs)) (take (minus (len xs) i) (rev xs))))))
(check-sat)
